<?xml version = "1.0" standalone="yes"?>
<!-- This file has been generated by DOcplex version 2.23.222  -->
<CPLEXSolution version="1.0">
 <header
   problemName="CVRP"
   objectiveValue="15129.7"
  />
 <variables>
  <variable name="x_0_3" index="2" value="1.00000"/>
  <variable name="x_0_6" index="5" value="1.00000"/>
  <variable name="x_0_7" index="6" value="1.00000"/>
  <variable name="x_0_10" index="9" value="1.00000"/>
  <variable name="x_0_12" index="11" value="1.00000"/>
  <variable name="x_0_16" index="15" value="1.00000"/>
  <variable name="x_0_17" index="16" value="1.00000"/>
  <variable name="x_0_18" index="17" value="1.00000"/>
  <variable name="x_0_19" index="18" value="1.00000"/>
  <variable name="x_0_21" index="20" value="1.00000"/>
  <variable name="x_1_0" index="22" value="1.00000"/>
  <variable name="x_2_0" index="44" value="1.00000"/>
  <variable name="x_3_0" index="66" value="1.00000"/>
  <variable name="x_4_0" index="88" value="1.00000"/>
  <variable name="x_5_0" index="110" value="1.00000"/>
  <variable name="x_6_15" index="146" value="1.00000"/>
  <variable name="x_7_11" index="164" value="1.00000"/>
  <variable name="x_8_13" index="188" value="1.00000"/>
  <variable name="x_9_1" index="199" value="1.00000"/>
  <variable name="x_10_0" index="220" value="1.00000"/>
  <variable name="x_11_4" index="246" value="1.00000"/>
  <variable name="x_12_2" index="266" value="1.00000"/>
  <variable name="x_13_0" index="286" value="1.00000"/>
  <variable name="x_14_20" index="327" value="1.00000"/>
  <variable name="x_15_0" index="330" value="1.00000"/>
  <variable name="x_16_9" index="361" value="1.00000"/>
  <variable name="x_17_0" index="374" value="1.00000"/>
  <variable name="x_18_5" index="401" value="1.00000"/>
  <variable name="x_19_8" index="426" value="1.00000"/>
  <variable name="x_20_0" index="440" value="1.00000"/>
  <variable name="x_21_22" index="483" value="1.00000"/>
  <variable name="x_22_14" index="498" value="1.00000"/>
  <variable name="u_1" index="506" value="70.00000"/>
  <variable name="u_2" index="507" value="70.00000"/>
  <variable name="u_3" index="508" value="59.00000"/>
  <variable name="u_4" index="509" value="70.00000"/>
  <variable name="u_5" index="510" value="65.00000"/>
  <variable name="u_6" index="511" value="30.00000"/>
  <variable name="u_7" index="512" value="48.00000"/>
  <variable name="u_8" index="513" value="19.00000"/>
  <variable name="u_9" index="514" value="63.00000"/>
  <variable name="u_10" index="515" value="70.00000"/>
  <variable name="u_11" index="516" value="69.00000"/>
  <variable name="u_12" index="517" value="13.00000"/>
  <variable name="u_13" index="518" value="65.00000"/>
  <variable name="u_14" index="519" value="54.00000"/>
  <variable name="u_15" index="520" value="69.00000"/>
  <variable name="u_16" index="521" value="46.00000"/>
  <variable name="u_17" index="522" value="70.00000"/>
  <variable name="u_18" index="523" value="46.00000"/>
  <variable name="u_19" index="524" value="7.00000"/>
  <variable name="u_20" index="525" value="66.00000"/>
  <variable name="u_21" index="526" value="10.00000"/>
  <variable name="u_22" index="527" value="31.00000"/>
 </variables>
</CPLEXSolution>
